p cnf 7230 16
4452 -5037 0
4452 -5041 0
-3370 -5037 -5040 0
5038 5039 0
4454 -5039 0
-4454 -5038 0
5036 5037 0
-4452 -5036 0
5034 5035 0
4450 -5035 0
-4450 -5034 0
5040 5041 0
3370 -5041 0
-4476 5043 0
4476 -5043 0
5032 5033 0
